(set-info :smt-lib-version 2.6)
(set-logic UFNIA)
(set-info :source |
Generated by: Geoff Sutcliffe
Generated on: 2026-03-11
Generator: TPTPWorld
Application: Benchmarking automated theorem provers
Time limit: 120.0

These benchmarks are translations from the TPTP Library (Thousands of
Problems for Theorem Provers), see http://www.cs.miami.edu/~tptp/

The TPTP is maintained by Geoff Sutcliffe, and he contributed this
selection of benchmarks to SMT-LIB.  They were exported from the
v9.2.1 realease of TPTP.
|)
(set-info :category "industrial")
(set-info :status "unknown")
; SZS status Success
(declare-sort $$unsorted 0)
(declare-sort tptp.uni 0)
(declare-sort tptp.ty 0)
(declare-fun tptp.sort (tptp.ty tptp.uni) Bool)
(declare-fun tptp.witness (tptp.ty) tptp.uni)
(assert (forall ((A tptp.ty)) (tptp.sort A (tptp.witness A))))
(declare-fun tptp.int () tptp.ty)
(declare-fun tptp.real () tptp.ty)
(declare-sort tptp.bool 0)
(declare-fun tptp.bool1 () tptp.ty)
(declare-fun tptp.true () tptp.bool)
(declare-fun tptp.false () tptp.bool)
(declare-fun tptp.match_bool (tptp.ty tptp.bool tptp.uni tptp.uni) tptp.uni)
(assert (forall ((A tptp.ty) (X tptp.bool) (X1 tptp.uni) (X2 tptp.uni)) (tptp.sort A (tptp.match_bool A X X1 X2))))
(assert (forall ((A tptp.ty) (Z tptp.uni) (Z1 tptp.uni)) (=> (tptp.sort A Z) (= (tptp.match_bool A tptp.true Z Z1) Z))))
(assert (forall ((A tptp.ty) (Z tptp.uni) (Z1 tptp.uni)) (=> (tptp.sort A Z1) (= (tptp.match_bool A tptp.false Z Z1) Z1))))
(assert (not (= tptp.true tptp.false)))
(assert (forall ((U tptp.bool)) (or (= U tptp.true) (= U tptp.false))))
(declare-sort tptp.tuple0 0)
(declare-fun tptp.tuple01 () tptp.ty)
(declare-fun tptp.tuple02 () tptp.tuple0)
(assert (forall ((U tptp.tuple0)) (= U tptp.tuple02)))
(declare-fun tptp.qtmark () tptp.ty)
(assert (forall ((X Int) (Y Int) (Z Int)) (=> (<= X Y) (=> (<= 0 Z) (<= (* X Z) (* Y Z))))))
(declare-fun tptp.min (Int Int) Int)
(declare-fun tptp.max (Int Int) Int)
(assert (forall ((X Int) (Y Int)) (let ((_let_1 (tptp.max X Y))) (and (<= X _let_1) (<= Y _let_1)))))
(assert (forall ((X Int) (Y Int)) (let ((_let_1 (tptp.max X Y))) (or (= _let_1 X) (= _let_1 Y)))))
(assert (forall ((X Int) (Y Int)) (let ((_let_1 (tptp.min X Y))) (and (<= _let_1 X) (<= _let_1 Y)))))
(assert (forall ((X Int) (Y Int)) (let ((_let_1 (tptp.min X Y))) (or (= _let_1 X) (= _let_1 Y)))))
(assert (forall ((X Int) (Y Int)) (=> (<= Y X) (= (tptp.max X Y) X))))
(assert (forall ((X Int) (Y Int)) (=> (<= X Y) (= (tptp.max X Y) Y))))
(assert (forall ((X Int) (Y Int)) (=> (<= X Y) (= (tptp.min X Y) X))))
(assert (forall ((X Int) (Y Int)) (=> (<= Y X) (= (tptp.min X Y) Y))))
(assert (forall ((X Int) (Y Int)) (=> (<= Y X) (= (tptp.max X Y) (tptp.max Y X)))))
(assert (forall ((X Int) (Y Int)) (=> (<= Y X) (= (tptp.min X Y) (tptp.min Y X)))))
(declare-sort tptp.tree 0)
(declare-fun tptp.tree1 () tptp.ty)
(declare-fun tptp.empty () tptp.tree)
(declare-fun tptp.node (tptp.tree Int tptp.tree) tptp.tree)
(declare-fun tptp.match_tree (tptp.ty tptp.tree tptp.uni tptp.uni) tptp.uni)
(assert (forall ((A tptp.ty) (X tptp.tree) (X1 tptp.uni) (X2 tptp.uni)) (tptp.sort A (tptp.match_tree A X X1 X2))))
(assert (forall ((A tptp.ty) (Z tptp.uni) (Z1 tptp.uni)) (=> (tptp.sort A Z) (= (tptp.match_tree A tptp.empty Z Z1) Z))))
(assert (forall ((A tptp.ty) (Z tptp.uni) (Z1 tptp.uni) (U tptp.tree) (U1 Int) (U2 tptp.tree)) (=> (tptp.sort A Z1) (= (tptp.match_tree A (tptp.node U U1 U2) Z Z1) Z1))))
(assert (forall ((V tptp.tree) (V1 Int) (V2 tptp.tree)) (not (= tptp.empty (tptp.node V V1 V2)))))
(declare-fun tptp.node_proj_1 (tptp.tree) tptp.tree)
(assert (forall ((U tptp.tree) (U1 Int) (U2 tptp.tree)) (= (tptp.node_proj_1 (tptp.node U U1 U2)) U)))
(declare-fun tptp.node_proj_2 (tptp.tree) Int)
(assert (forall ((U tptp.tree) (U1 Int) (U2 tptp.tree)) (= (tptp.node_proj_2 (tptp.node U U1 U2)) U1)))
(declare-fun tptp.node_proj_3 (tptp.tree) tptp.tree)
(assert (forall ((U tptp.tree) (U1 Int) (U2 tptp.tree)) (= (tptp.node_proj_3 (tptp.node U U1 U2)) U2)))
(assert (forall ((U tptp.tree)) (or (= U tptp.empty) (= U (tptp.node (tptp.node_proj_1 U) (tptp.node_proj_2 U) (tptp.node_proj_3 U))))))
(declare-fun tptp.size (tptp.tree) Int)
(assert (and (= (tptp.size tptp.empty) 0) (forall ((X tptp.tree) (X1 Int) (X2 tptp.tree)) (= (tptp.size (tptp.node X X1 X2)) (+ (+ 1 (tptp.size X)) (tptp.size X2))))))
(assert (forall ((T tptp.tree)) (<= 0 (tptp.size T))))
(declare-fun tptp.mem (Int tptp.tree) Bool)
(assert (forall ((X Int)) (and (not (tptp.mem X tptp.empty)) (forall ((X1 tptp.tree) (X2 Int) (X3 tptp.tree)) (= (tptp.mem X (tptp.node X1 X2 X3)) (or (tptp.mem X X1) (= X X2) (tptp.mem X X3)))))))
(assert (not (forall ((T tptp.tree)) (let ((_let_1 (= T tptp.empty))) (=> (not _let_1) (and (=> _let_1 false) (forall ((X tptp.tree) (X1 Int) (X2 tptp.tree)) (=> (= T (tptp.node X X1 X2)) (and (=> (= X2 tptp.empty) (and (=> (= X tptp.empty) (and (tptp.mem X1 T) (forall ((X3 Int)) (=> (tptp.mem X3 T) (<= X3 X1))))) (forall ((W tptp.tree) (W1 Int) (W2 tptp.tree)) (let ((_let_1 (tptp.size T))) (=> (= X (tptp.node W W1 W2)) (and (<= 0 _let_1) (< (tptp.size X) _let_1) (not (= X tptp.empty)) (forall ((O Int)) (=> (and (tptp.mem O X) (forall ((X3 Int)) (=> (tptp.mem X3 X) (<= X3 O)))) (and (tptp.mem (tptp.max O X1) T) (forall ((X3 Int)) (=> (tptp.mem X3 T) (<= X3 (tptp.max O X1))))))))))))) (forall ((W tptp.tree) (W1 Int) (W2 tptp.tree)) (let ((_let_1 (tptp.size T))) (=> (= X2 (tptp.node W W1 W2)) (and (=> (= X tptp.empty) (and (<= 0 _let_1) (< (tptp.size X2) _let_1) (not (= X2 tptp.empty)) (forall ((O Int)) (=> (and (tptp.mem O X2) (forall ((X3 Int)) (=> (tptp.mem X3 X2) (<= X3 O)))) (and (tptp.mem (tptp.max O X1) T) (forall ((X3 Int)) (=> (tptp.mem X3 T) (<= X3 (tptp.max O X1))))))))) (forall ((W3 tptp.tree) (W4 Int) (W5 tptp.tree)) (let ((_let_1 (tptp.size T))) (=> (= X (tptp.node W3 W4 W5)) (and (<= 0 _let_1) (< (tptp.size X2) _let_1) (not (= X2 tptp.empty)) (forall ((O Int)) (let ((_let_1 (tptp.size T))) (=> (and (tptp.mem O X2) (forall ((X3 Int)) (=> (tptp.mem X3 X2) (<= X3 O)))) (and (<= 0 _let_1) (< (tptp.size X) _let_1) (not (= X tptp.empty)) (forall ((O1 Int)) (=> (and (tptp.mem O1 X) (forall ((X3 Int)) (=> (tptp.mem X3 X) (<= X3 O1)))) (and (tptp.mem (tptp.max O1 (tptp.max X1 O)) T) (forall ((X3 Int)) (=> (tptp.mem X3 T) (<= X3 (tptp.max O1 (tptp.max X1 O)))))))))))))))))))))))))))))
(check-sat)
(exit)
